32	0

0	2	2	3
1	2	4	5
3	2	4	5
7	2	6	7
6	2	6	7
9	1	8
6	1	8
2	2	9	11
1	1	10
9	2	12	14
10	2	12	14
2	1	13
5	2	15	16
5	2	15	16
8	2	17	18
7	2	17	18
10	2	19	22
10	2	19	22
4	1	20
3	2	21	23
10	1	24
9	1	23
8	1	24
8	1	25
1	2	26	27
7	2	28	30
9	2	29	30
4	2	29	31
9	1	32
4	1	31
7	1	32
0	0
